c Random CNF formula
p cnf 10 42
3 4 9 0
-5 -7 -1 0
-7 -5 9 0
-2 -6 10 0
-1 -10 -5 0
2 6 -1 0
6 -5 -10 0
8 -9 7 0
-9 -7 -8 0
-3 2 8 0
-10 -8 -6 0
10 7 -8 0
3 10 -4 0
6 2 7 0
9 -6 5 0
-2 1 4 0
-5 -6 1 0
1 -4 7 0
-10 2 -3 0
9 -10 6 0
-10 5 6 0
10 9 -6 0
-5 -4 3 0
10 -6 3 0
4 8 5 0
-5 -2 -1 0
7 1 2 0
-10 -9 5 0
1 2 4 0
-9 6 -10 0
5 8 6 0
-2 -6 1 0
-6 -10 -9 0
1 6 3 0
5 2 -4 0
10 5 -7 0
6 8 7 0
-10 -7 -5 0
7 -5 3 0
5 -8 1 0
10 1 2 0
-1 7 -2 0
